&CONTROL
  calculation = 'vc-relax',
  tprnfor = true,		
  tstress = true,		
  prefix='4-6-8',
  outdir='./vc-double1_468',
  pseudo_dir = '.',
  verbosity = 'high'
/

&SYSTEM
  assume_isolated = '2D',	
  ibrav = 8,			
  a = 11.8179,
  b = 7.46647,
  c = 20.00,			
  nat = 24, ntyp = 1,
  ecutwfc = 50,	
  ecutrho = 200,
  nbnd=96,			
  occupations = 'tetrahedra'	
/

&ELECTRONS
  conv_thr =   1.0d-8,
  mixing_beta =   0.7		
/

&IONS
  ion_dynamics='bfgs'
/

&CELL
  cell_dynamics='bfgs',
  press=0.d0,			
  press_conv_thr=0.1d0,		
  cell_dofree ='2Dxy'
/

ATOMIC_SPECIES
C  12.011  C.pbe-n-kjpaw_psl.1.0.0.UPF
 
ATOMIC_POSITIONS (angstrom)
C    4.079    6.733    10.000 
C    0.734    4.472    10.000 
C    0.734    2.992    10.000 
C    4.081    0.733    10.000 
C    5.157    1.741    10.000 
C    5.155    5.726    10.000 
C    7.737    6.732    10.000 
C    6.660    5.725    10.000 
C    6.661    1.742    10.000 
C    7.737    0.734    10.000 
C   11.083    2.992    10.000 
C   11.084    4.472    10.000 
C    2.777    6.103    10.000 
C    1.780    5.422    10.000 
C    1.781    2.042    10.000 
C    2.779    1.363    10.000 
C    4.688    3.128    10.000 
C    4.688    4.339    10.000 
C    9.039    6.101    10.000 
C   10.037    5.421    10.000 
C    7.129    4.339    10.000 
C    7.129    3.128    10.000 
C    9.040    1.363    10.000 
C   10.037    2.042    10.000 

K_POINTS automatic
6 6 1 0 0 0
